# Cost: 939

# Tail Head Net
 33  34 1
 33  93 1
 34  35 1
 93 153 1
 35  36 1
 36  37 1
 37  38 1
 38  39 1
 39  40 1
 40  41 1
 41  42 1
 42  43 1
 43  44 1
 44  45 1
 45  46 1
 46  47 1
 47  48 1
 48  49 1
 49  50 1
 50  51 1
 51  52 1
 52  53 1
 53  54 1
153 213 1
213 273 1
273 333 1
333 393 1
393 453 1
453 513 1
513 573 1
573 633 1
633 693 1
693 753 1
753 813 1
813 873 1
873 933 1
933 993 1
993 1053 1
1053 1113 1
1113 1173 1
1173 1233 1
1233 1293 1
1293 1353 1
1353 1413 1
1413 1473 1
1473 1533 1
1533 1593 1
1593 1653 1
1653 1713 1
1713 1773 1
1773 1833 1
1833 1893 1
1893 1953 1
1953 2013 1
2013 2073 1
2073 2133 1
2133 2193 1
2193 2253 1
2253 2313 1
2313 2373 1
2373 2433 1
2433 2493 1
2493 2553 1
2553 2613 1
2613 2673 1
2673 2733 1
2733 2793 1
2793 2853 1
2853 2913 1
2913 2973 1
2973 3033 1
3033 3093 1
3093 3153 1
3153 3213 1
3213 3273 1
3273 3333 1
3333 3334 1
3333 3393 1
3334 3335 1
3335 3336 1
3336 3337 1
3337 3338 1
3338 3339 1
3339 3340 1
3340 3341 1
3341 3342 1
3342 3343 1
3343 3344 1
3344 3345 1
3345 3346 1
3346 3347 1
3347 3407 1
3393 3453 1
3407 3408 1
3408 3409 1
3409 3410 1
3410 3470 1
3453 3513 1
3470 3471 1
3471 3472 1
3472 3473 1
3473 3474 1
3474 3475 1
3475 3476 1
3476 3536 1
3513 3573 1
3536 3596 1
3565 3564 1
3566 3565 1
3567 3566 1
3568 3567 1
3569 3568 1
3570 3569 1
3571 3570 1
3572 3571 1
3573 3572 1
3596 3597 1
3597 3598 1
 63   3 2
122 121 2
123  63 2
123 122 2
124 123 2
184 124 2
244 184 2
304 244 2
364 304 2
365 364 2
425 365 2
485 425 2
545 485 2
546 545 2
606 546 2
666 606 2
726 666 2
786 726 2
846 786 2
906 846 2
966 906 2
1026 966 2
1086 1026 2
1146 1086 2
1206 1146 2
1266 1206 2
1326 1266 2
1386 1326 2
1446 1386 2
1506 1446 2
1566 1506 2
1626 1566 2
1686 1626 2
1746 1686 2
1806 1746 2
1866 1806 2
1926 1866 2
1986 1926 2
2046 1986 2
2106 2046 2
2166 2106 2
2226 2166 2
2286 2226 2
2346 2286 2
2406 2346 2
2466 2406 2
2526 2466 2
2586 2526 2
2646 2586 2
2706 2646 2
2766 2706 2
2826 2766 2
2886 2826 2
2946 2886 2
3006 2946 2
3066 3006 2
3126 3066 2
3186 3126 2
3246 3186 2
3306 3246 2
3366 3306 2
3426 3366 2
3486 3426 2
3487 3486 2
3488 3487 2
3489 3488 2
3490 3489 2
3491 3490 2
3492 3491 2
3493 3492 2
3494 3493 2
3495 3494 2
3496 3495 2
3497 3496 2
3498 3497 2
3499 3498 2
3500 3499 2
3501 3500 2
3561 3501 2
3562 3561 2
3563 3562 2
  7   8 3
  8   9 3
  9  10 3
 10  11 3
 11  12 3
 12  13 3
 13  14 3
 14  15 3
 15  16 3
 16  17 3
 17  18 3
 18  19 3
 19  20 3
 20  21 3
 21  22 3
 22  23 3
 23  24 3
 24  25 3
 25  26 3
 26 3626 3
3626 3686 3
3686 3687 3
3687 3688 3
3688 3689 3
3689 3690 3
3690 3691 3
3691 3692 3
3692 3693 3
3693 3694 3
3694 3695 3
3695 3696 3
3696 3697 3
3697 3698 3
3698 3699 3
3699 3700 3
3700 3701 3
3701 3702 3
3702 3703 3
3703 3704 3
3704 3705 3
3705 3706 3
3706 3707 3
3707 3708 3
3708 3768 3
3768 3769 3
3769 3770 3
3770 3771 3
3771 3772 3
3772 3832 3
3832 3892 3
3892 3893 3
3893 3894 3
3894 3954 3
3954 3955 3
3955 3956 3
3956 4016 3
4016 4076 3
4076 4136 3
4136 4137 3
4137 4197 3
4197 4257 3
4257 4317 3
4317 4377 3
4377 4437 3
4437 4497 3
4497 4498 3
4498 4558 3
4558 4618 3
4618 4678 3
4678 4738 3
4738 4739 3
4739 4799 3
4799 4859 3
4859 4860 3
4860 4920 3
4920 4980 3
4980 1380 3
541 601 4
601 602 4
602 662 4
662 722 4
722 782 4
782 842 4
842 902 4
902 962 4
962 1022 4
1022 1082 4
1082 1142 4
1142 1202 4
1202 1262 4
1262 1322 4
1322 1382 4
1382 1442 4
1442 1502 4
1502 1562 4
1562 1622 4
1622 1682 4
1682 1742 4
1742 1802 4
1802 1862 4
1862 1922 4
1922 1982 4
1982 2042 4
2042 2102 4
2102 2162 4
2162 2222 4
2222 2282 4
2282 2342 4
2342 2402 4
2402 2462 4
2462 2522 4
2522 2582 4
2582 2642 4
2642 2702 4
2702 2762 4
2762 2763 4
2763 2823 4
2823 2883 4
2883 2884 4
2884 2885 4
2885 2945 4
2945 3005 4
3005 3065 4
3005 6605 4
3034 3035 4
3035 3036 4
3036 3037 4
3037 3038 4
3038 3039 4
3039 3040 4
3040 3041 4
3041 3042 4
3042 3043 4
3043 3044 4
3044 3045 4
3045 3046 4
3046 3047 4
3047 3048 4
3048 3049 4
3049 3050 4
3050 3051 4
3051 3052 4
3052 3053 4
3053 3054 4
3054 3055 4
3055 3056 4
3056 3057 4
3057 3058 4
3058 3059 4
3059 3060 4
3065 3125 4
6605 6606 4
6606 6607 4
6607 6608 4
6608 6609 4
6609 6610 4
6610 6611 4
6611 6612 4
6612 6613 4
6613 6614 4
6614 6615 4
6615 6616 4
6616 6617 4
6617 6618 4
6618 6619 4
6619 6620 4
6620 6621 4
6621 6622 4
6622 6623 4
6623 6624 4
6624 6625 4
6625 6626 4
6626 6627 4
6627 6628 4
6628 6629 4
6629 6630 4
6630 6631 4
6631 6632 4
6632 6633 4
6633 6634 4
6634 3034 4
3125 3185 4
3185 3245 4
3245 3305 4
3305 3365 4
3365 3425 4
3425 3485 4
3485 3545 4
3545 3546 4
 29  30 5
 30  31 5
 31  32 5
 32 3632 5
3632 3633 5
3633 3634 5
3634 3635 5
3635 3636 5
3636 3637 5
3637 3638 5
3638 3639 5
3639 3640 5
3640 3641 5
3641 3642 5
3642 3643 5
3643 3644 5
3644 3645 5
3645 3646 5
3646 3647 5
3647 3648 5
3648 3649 5
3649 3650 5
3650 3651 5
3651 3652 5
3652 3653 5
3653 3654 5
3654 3655 5
3655 3656 5
3656 3657 5
 58 118 5
3657 3658 5
118 178 5
3658  58 5
178 238 5
238 298 5
298 358 5
358 418 5
418 478 5
478 538 5
538 598 5
598 658 5
658 718 5
718 778 5
778 838 5
838 898 5
898 958 5
958 1018 5
1018 1078 5
1078 1138 5
1138 1139 5
1139 1199 5
1199 1200 5
1200 1260 5
1260 1320 5
3061 3001 6
3121 3061 6
3181 3121 6
3241 3181 6
3241 6841 6
6841 6901 6
6901 6961 6
6961 7021 6
7021 7081 6
7081 7082 6
7082 7083 6
7083 7084 6
7084 7085 6
7085 7086 6
7086 7087 6
7087 7088 6
7088 7089 6
7089 7090 6
7090 7091 6
7091 7092 6
7092 7093 6
7093 7094 6
7094 7095 6
7095 7096 6
7096 7097 6
7097 7098 6
7098 7158 6
3574 3575 6
3575 3576 6
3576 3577 6
3577 3578 6
3578 3579 6
3579 3580 6
3580 3581 6
7158 7159 6
7159 7160 6
7160 7161 6
7161 7162 6
7162 7163 6
7163 7164 6
7164 7165 6
7165 7166 6
7166 7167 6
7167 7168 6
7168 7169 6
7169 7170 6
7170 7171 6
7171 7172 6
7172 7173 6
7173 7174 6
7174 3574 6
840 900 7
900 4500 7
4499 8099 7
4500 4499 7
2641 2701 7
6181 6241 7
6182 6181 7
6241 2641 7
8099 8159 7
8156 8216 7
8157 8156 7
8158 8157 7
8159 8158 7
8210 8270 7
8211 8210 7
8212 8211 7
8213 8212 7
8214 8213 7
8215 8214 7
8216 8215 7
8268 8328 7
8269 8268 7
8270 8269 7
8325 8385 7
8326 8325 7
8327 8326 7
8328 8327 7
8384 8444 7
8385 8384 7
8444 8504 7
8501 8561 7
8502 8501 7
8503 8502 7
8504 8503 7
8559 8619 7
8560 8559 7
8561 8560 7
8619 8679 7
8678 8738 7
8679 8678 7
8737 8797 7
8738 8737 7
8794 8854 7
8795 8794 7
8796 8795 7
8797 8796 7
8852 8912 7
8853 8852 7
8854 8853 7
8911 8971 7
8912 8911 7
8971 9031 7
9031 9091 7
9090 9150 7
9091 9090 7
9149 9209 7
9150 9149 7
9209 9269 7
9265 9325 7
9266 9265 7
9267 9266 7
9268 9267 7
9269 9268 7
9316 9376 7
9317 9316 7
9318 9317 7
9319 9318 7
9320 9319 7
9321 9320 7
9322 9321 7
9323 9322 7
9324 9323 7
9325 9324 7
9375 9435 7
9376 9375 7
9433 9493 7
9434 9433 7
9435 9434 7
9485 9545 7
9486 9485 7
9487 9486 7
9488 9487 7
9489 9488 7
9490 9489 7
9491 9490 7
9492 9491 7
9493 9492 7
9545 9605 7
9605 9665 7
9663 9723 7
9664 9663 7
9665 9664 7
9723 9783 7
9782 6182 7
9783 9782 7
 56 116 8
116 176 8
167 3767 8
168 167 8
169 168 8
170 169 8
171 170 8
172 171 8
173 172 8
174 173 8
175 174 8
176 175 8
3721 3781 8
3722 3721 8
3723 3722 8
3724 3723 8
3725 3724 8
3726 3725 8
3727 3726 8
3728 3727 8
3729 3728 8
3730 3729 8
3731 3730 8
3732 3731 8
3733 3732 8
3734 3733 8
3735 3734 8
3736 3735 8
3737 3736 8
3738 3737 8
3739 3738 8
3740 3739 8
3741 3740 8
3742 3741 8
3743 3742 8
3744 3743 8
3745 3744 8
3746 3745 8
3747 3746 8
3748 3747 8
3749 3748 8
3750 3749 8
3751 3750 8
3752 3751 8
3753 3752 8
3754 3753 8
3755 3754 8
3756 3755 8
3757 3756 8
3758 3757 8
3759 3758 8
3760 3759 8
3761 3760 8
3762 3761 8
3763 3762 8
3764 3763 8
3765 3764 8
3766 3765 8
3767 3766 8
3781 3841 8
3841 3901 8
3901 3961 8
3961 4021 8
4021 4081 8
4081 4141 8
4141 4201 8
661 721 8
4201 4261 8
721 781 8
4261 661 8
781 841 8
841 901 8
901 961 8
961 1021 8
1021 1081 8
1081 1141 8
1141 1201 8
1201 1261 8
1261 1321 8
361 362 9
362 422 9
422 482 9
482 483 9
483 543 9
543 603 9
603 663 9
663 723 9
723 783 9
783 843 9
843 903 9
903 963 9
963 1023 9
1023 1083 9
1083 1143 9
1143 1203 9
1203 1263 9
1263 1323 9
1323 1383 9
1383 1443 9
1443 1503 9
1503 1563 9
1563 1623 9
1623 1683 9
1683 1743 9
1743 1803 9
1803 1863 9
1863 1923 9
1923 1983 9
1983 2043 9
2043 2103 9
2103 2163 9
2163 2223 9
2223 2283 9
2283 2343 9
2343 2403 9
2403 2463 9
2463 2523 9
2523 2583 9
2583 2643 9
2643 2703 9
2703 6303 9
6303 6363 9
6363 6423 9
6423 6483 9
6483 6484 9
6484 6544 9
6544 6604 9
6604 6664 9
6664 6665 9
6665 6666 9
6666 6667 9
6667 6668 9
6668 6669 9
6669 6670 9
6670 6671 9
6671 6672 9
6672 6673 9
6673 6674 9
6674 6675 9
6675 6676 9
6676 6677 9
6677 6737 9
6737 6738 9
6738 6739 9
6739 6740 9
6740 6741 9
6741 6801 9
6801 6861 9
6861 6862 9
6862 6863 9
6863 6864 9
6864 6865 9
6865 6866 9
6866 6867 9
6867 6868 9
6868 6869 9
6869 6870 9
6870 6871 9
6871 6872 9
6872 6873 9
6873 6874 9
6874 6934 9
6934 6935 9
6935 6936 9
6936 6937 9
6937 6997 9
3411 3412 9
3412 3413 9
3413 3414 9
3414 3415 9
3415 3416 9
3416 3417 9
3417 3418 9
3418 3419 9
3419 3420 9
6997 6998 9
6998 6999 9
6999 7000 9
7000 7001 9
7001 7002 9
7002 7003 9
7003 7004 9
7004 7005 9
7005 7006 9
7006 7007 9
7007 7008 9
7008 7009 9
7009 7010 9
7010 7011 9
7011 3411 9
3661  61 10
3662 3661 10
3663 3662 10
3664 3663 10
3665 3664 10
3666 3665 10
3667 3666 10
3668 3667 10
3669 3668 10
3670 3669 10
3671 3670 10
3672 3671 10
3673 3672 10
3674 3673 10
3675 3674 10
3676 3675 10
3677 3676 10
3678 3677 10
3679 3678 10
3680 3679 10
3681 3680 10
3682 3681 10
3683 3682 10
300 3900 10
3895 7495 10
3896 3895 10
3897 3896 10
3898 3897 10
3899 3898 10
3900 3899 10
7283 3683 10
7284 7283 10
7344 7284 10
7345 7344 10
7346 7345 10
7347 7346 10
7348 7347 10
7349 7348 10
7350 7349 10
7351 7350 10
7352 7351 10
7353 7352 10
7354 7353 10
7355 7354 10
7356 7355 10
7357 7356 10
7358 7357 10
7418 7358 10
7419 7418 10
7479 7419 10
7480 7479 10
7481 7480 10
7482 7481 10
7483 7482 10
7484 7483 10
7485 7484 10
7486 7485 10
7487 7486 10
7488 7487 10
7489 7488 10
7490 7489 10
7491 7490 10
7492 7491 10
7493 7492 10
7494 7493 10
7495 7494 10
2397 2398 11
2398 2399 11
2399 2400 11
2401 6001 11
2434 2435 11
2435 2436 11
2436 2437 11
2437 2438 11
2438 2439 11
2439 2440 11
2440 2441 11
2441 2442 11
2442 2443 11
2443 2444 11
2444 2445 11
2445 2446 11
2446 2447 11
2447 2448 11
2448 2449 11
2449 2450 11
2450 2451 11
2451 2452 11
2452 2453 11
2453 2454 11
2454 2455 11
2455 2456 11
2456 2457 11
2457 2397 11
6001 6002 11
6002 6003 11
6003 6004 11
6004 6005 11
6005 6006 11
6006 6007 11
6007 6008 11
6008 6009 11
6009 6010 11
6010 6011 11
6011 6012 11
6012 6013 11
6013 6014 11
6014 6015 11
6015 6016 11
6016 6017 11
6017 6018 11
6018 6019 11
6019 6020 11
6020 6021 11
6021 6022 11
6022 6023 11
6023 6024 11
6024 6025 11
6025 6026 11
6026 6027 11
6027 6028 11
6028 6029 11
6029 6030 11
6030 6031 11
6031 6032 11
6032 6033 11
6033 6034 11
6034 2434 11
1440 1500 12
1500 1560 12
1560 1620 12
1620 1680 12
1680 1740 12
1740 1800 12
1800 1860 12
1860 1920 12
1920 1980 12
1980 2040 12
2040 2100 12
2100 2160 12
2160 2220 12
2220 2280 12
2280 2340 12
2340 5940 12
5940 6000 12
6000 6060 12
6060 6120 12
6120 6180 12
6180 6240 12
6240 6300 12
6300 6360 12
6360 6420 12
6420 6480 12
6480 6540 12
6540 6600 12
6600 6660 12
3120 3180 12
6660 6720 12
3180 3240 12
6720 3120 12
3240 3300 12
